problems/csplib-prob056/sonet-models/noch/O2/lingeling/model_8_1-s3ring04-solution000001.solution
language Essence 1.3

letting network be mset({}, {}, {1, 3, 9, 11, 12}, {2, 5, 6, 10, 12}, {3, 4, 6, 8, 13}, {5, 7, 9}, {8, 9, 10, 11, 13})
$ Here is a simple "visualisation" for the value above.
$ 
$ 
$  1  3  9 11 12
$  2  5  6 10 12
$  3  4  6  8 13
$  5  7  9
$  8  9 10 11 13

